NAME : TW_55_seed_None_id_3
TYPE : CVRPTW
DIMENSION : 21
EDGE_WEIGHT_TYPE : EUC_2D
CAPACITY : 40
SERVICE_TIME : 100
LATE_COEFF : 0
NODE_COORD_SECTION
1	897	7
2	22	43
3	612	286
4	334	663
5	247	417
6	86	357
7	228	504
8	117	552
9	995	498
10	35	609
11	568	470
12	35	941
13	910	458
14	664	204
15	587	459
16	202	501
17	244	662
18	783	19
19	965	524
20	704	14
21	212	269
DEMAND_SECTION
1	0
2	5
3	5
4	9
5	4
6	9
7	4
8	2
9	9
10	1
11	3
12	5
13	5
14	9
15	9
16	9
17	4
18	10
19	9
20	9
21	8
TIME_WINDOW_SECTION
1	0	10000
2	0	10000
3	0	10000
4	0	10000
5	0	10000
6	0	10000
7	0	10000
8	0	10000
9	0	10000
10	0	10000
11	0	10000
12	0	10000
13	0	10000
14	0	10000
15	0	10000
16	0	10000
17	0	10000
18	0	10000
19	0	10000
20	0	10000
21	0	10000
DEPOT_SECTION
1
-1
EOF
